'hugeuniform115'
150 100 100
150
149
149
147
145
145
144
143
140
137
136
135
135
135
132
129
128
127
126
123
123
121
120
120
120
120
119
117
115
111
108
105
103
102
99
99
95
95
93
91
91
91
90
89
89
89
79
77
77
77
76
74
74
73
71
69
69
67
63
58
58
54
52
52
50
50
49
48
46
46
43
37
36
36
35
35
33
32
29
29
29
28
27
25
23
23
20
18
18
14
13
12
10
7
6
5
4
3
3
0
